120
150
91
94
36
56
20
94
96
98
92
74
40
47
20
60
98
90
54
85
39
51
54
96
24
53
97
36
36
40
64
51
99
46
51
99
99
51
47
63
99
77
69
51
40
92
92
77
39
47
58
84
66
49
32
69
34
75
75
41
66
43
62
34
72
96
77
62
37
54
99
79
69
69
79
30
51
51
54
96
28
31
77
54
60
69
79
42
36
58
60
54
96
32
51
99
35
62
66
84
53
69
75
66
37
63
87
99
53
97
69
34
51
66
41
79
69
47
47
63
87
43
